0000000000000000
0000000000000000
0000000000000000
0000000000000000
0000000000000000
0011111111111100
0000000000001100
0000000000001100
0000000000001100
0011110000001100
0011110000001100
0011110000001100
0000000000000000
0000000000000000
0000000000000000
0000000000000000